73
166 134 5
24 163 130 190
89 182 53
38 90 197
122 39 157
16 119 177
17 102
101 160 62
110 3
188 80 66
34 92
120 63 136
6 142 161
48 81
180 20 128
95 32
61 74
117 176 22
10 144 154
168 111 35
107 11
18 158 138
181 193 83 96 171 198
164 127 25
58 75
36 91
54 76
140 65 118
68 139 116
69 71
29 109 183
159 150 4
132 170 169 41 192
78 199 55
112 21 184
37 115 165
147 12 151
145 8 155
77 56
167 172 9 156
40 84
28
98 26
175 113 31 200
70
42 85 194
86 47
104 13
7 179 126
129 121 73 196
49
94 46
1 178 148 185
173 137 52 152
114 2
108 14 189
64 153 106
99 27
57
33 93
174 97 60
124 105 88
23 141 149
135 133 43
187 50 131 143
30 125 162
87 186 59 191
79 51
15 103
146 44 123
19 100
67 72 195
82 45
